p wcnf 169 338 339 
1 -136 -87 0 
1 167 34 0 
1 -121 139 0 
1 -97 50 0 
1 -161 51 0 
1 99 142 0 
1 162 -54 0 
1 -89 9 0 
1 150 44 0 
1 75 -89 0 
1 -10 18 0 
1 96 47 0 
1 -141 -162 0 
1 -51 59 0 
1 -159 -153 0 
1 -34 104 0 
1 -140 -92 0 
1 -87 114 0 
1 -77 -132 0 
1 117 120 0 
1 -9 -82 0 
1 66 -37 0 
1 -46 94 0 
1 135 -137 0 
1 -134 60 0 
1 -88 -145 0 
1 -40 -136 0 
1 130 90 0 
1 -155 79 0 
1 -24 45 0 
1 -57 -79 0 
1 -115 -41 0 
1 -51 83 0 
1 43 11 0 
1 -5 -36 0 
1 -133 -59 0 
1 125 145 0 
1 26 -25 0 
1 11 -111 0 
1 103 165 0 
1 162 -165 0 
1 -15 72 0 
1 -123 19 0 
1 -125 157 0 
1 -119 78 0 
1 -153 103 0 
1 -92 18 0 
1 -121 6 0 
1 146 22 0 
1 -163 72 0 
1 -27 -118 0 
1 54 -1 0 
1 38 -73 0 
1 69 -76 0 
1 -12 -25 0 
1 97 -5 0 
1 -122 -155 0 
1 126 159 0 
1 -74 121 0 
1 100 35 0 
1 -113 -60 0 
1 68 130 0 
1 141 -91 0 
1 -129 154 0 
1 77 44 0 
1 -13 -43 0 
1 -137 121 0 
1 -152 -112 0 
1 -45 -93 0 
1 -107 -74 0 
1 -135 -156 0 
1 52 27 0 
1 32 8 0 
1 21 -120 0 
1 -36 90 0 
1 -46 -66 0 
1 -130 -101 0 
1 -10 20 0 
1 -12 48 0 
1 -115 158 0 
1 78 82 0 
1 -4 119 0 
1 -20 142 0 
1 39 155 0 
1 100 28 0 
1 -138 -128 0 
1 -90 -106 0 
1 60 -107 0 
1 119 133 0 
1 29 38 0 
1 157 68 0 
1 -50 31 0 
1 -38 -112 0 
1 -43 -24 0 
1 -145 -85 0 
1 -35 -136 0 
1 76 43 0 
1 -114 22 0 
1 120 144 0 
1 131 80 0 
1 -119 75 0 
1 145 118 0 
1 -2 88 0 
1 169 73 0 
1 -14 -111 0 
1 -109 90 0 
1 -111 -9 0 
1 -97 -91 0 
1 -99 -24 0 
1 -128 157 0 
1 9 -93 0 
1 125 -133 0 
1 -161 33 0 
1 -17 70 0 
1 78 -81 0 
1 36 152 0 
1 14 -103 0 
1 121 69 0 
1 32 80 0 
1 -154 -78 0 
1 -12 -146 0 
1 -68 148 0 
1 89 72 0 
1 -143 -76 0 
1 161 62 0 
1 40 155 0 
1 118 8 0 
1 -6 61 0 
1 164 -9 0 
1 122 132 0 
1 133 59 0 
1 -26 130 0 
1 95 -153 0 
1 -5 -101 0 
1 64 -107 0 
1 -123 -49 0 
1 123 -121 0 
1 59 104 0 
1 -65 -67 0 
1 -154 -71 0 
1 -41 143 0 
1 116 -132 0 
1 110 -39 0 
1 138 43 0 
1 14 -22 0 
1 7 -27 0 
1 -55 38 0 
1 58 -49 0 
1 -100 115 0 
1 64 -95 0 
1 140 -27 0 
1 -58 70 0 
1 -143 -5 0 
1 120 -114 0 
1 -163 52 0 
1 60 76 0 
1 -6 152 0 
1 159 144 0 
1 -59 71 0 
1 -90 168 0 
1 -62 53 0 
1 23 105 0 
1 -78 -113 0 
1 -108 60 0 
1 58 110 0 
1 147 -143 0 
1 -42 103 0 
1 -110 76 0 
1 66 -125 0 
1 -66 48 0 
1 129 -108 0 
1 144 -84 0 
1 32 92 0 
1 -144 -141 0 
1 -146 136 0 
1 35 -128 0 
1 103 31 0 
1 136 -147 0 
1 65 25 0 
1 -103 -130 0 
1 5 86 0 
1 -122 70 0 
1 -25 137 0 
1 -65 -45 0 
1 -110 148 0 
1 119 37 0 
1 -79 -161 0 
1 151 68 0 
1 39 -140 0 
1 -56 48 0 
1 -117 -103 0 
1 -100 -5 0 
1 128 -169 0 
1 44 -13 0 
1 -44 -25 0 
1 -69 23 0 
1 155 2 0 
1 149 -14 0 
1 13 -63 0 
1 121 -39 0 
1 -125 -41 0 
1 125 -94 0 
1 22 13 0 
1 140 -156 0 
1 -121 -76 0 
1 -64 12 0 
1 61 -105 0 
1 -132 -119 0 
1 33 -47 0 
1 -14 -80 0 
1 68 129 0 
1 22 -109 0 
1 -13 -53 0 
1 137 158 0 
1 142 -97 0 
1 -103 -52 0 
1 -13 -59 0 
1 -28 154 0 
1 44 -104 0 
1 -161 -123 0 
1 -137 -118 0 
1 48 -130 0 
1 94 -35 0 
1 34 110 0 
1 -157 -111 0 
1 125 150 0 
1 28 -32 0 
1 26 43 0 
1 -50 -33 0 
1 26 -152 0 
1 -107 -73 0 
1 103 -27 0 
1 -84 106 0 
1 93 76 0 
1 -157 55 0 
1 -138 -46 0 
1 -44 59 0 
1 160 17 0 
1 20 -143 0 
1 75 85 0 
1 -105 -86 0 
1 -154 -10 0 
1 34 137 0 
1 -83 97 0 
1 -23 22 0 
1 159 152 0 
1 -100 -85 0 
1 -124 -56 0 
1 43 -69 0 
1 -101 24 0 
1 -116 21 0 
1 -43 91 0 
1 142 35 0 
1 -99 112 0 
1 -70 127 0 
1 75 22 0 
1 147 -87 0 
1 112 -118 0 
1 46 34 0 
1 23 -119 0 
1 37 -145 0 
1 3 -139 0 
1 -92 -9 0 
1 -17 113 0 
1 -96 -147 0 
1 153 -36 0 
1 -118 65 0 
1 55 30 0 
1 -31 48 0 
1 90 111 0 
1 -136 -134 0 
1 -82 -48 0 
1 10 -49 0 
1 -98 161 0 
1 27 7 0 
1 -105 155 0 
1 -73 76 0 
1 51 41 0 
1 67 -89 0 
1 -81 -98 0 
1 2 39 0 
1 158 -105 0 
1 -133 -17 0 
1 -109 2 0 
1 -89 -17 0 
1 128 67 0 
1 125 103 0 
1 127 -115 0 
1 148 152 0 
1 -41 -19 0 
1 -50 -30 0 
1 156 17 0 
1 -11 74 0 
1 -52 88 0 
1 142 -75 0 
1 105 -37 0 
1 -145 -108 0 
1 -115 -103 0 
1 114 -10 0 
1 -169 -66 0 
1 -57 168 0 
1 50 -22 0 
1 107 115 0 
1 -24 -104 0 
1 60 50 0 
1 -10 -85 0 
1 16 105 0 
1 14 133 0 
1 -144 -128 0 
1 122 98 0 
1 102 -34 0 
1 -160 131 0 
1 -130 -10 0 
1 93 45 0 
1 131 61 0 
1 -147 -112 0 
1 -110 -104 0 
1 -101 -60 0 
1 -33 -23 0 
1 154 -14 0 
1 64 136 0 
1 -9 -116 0 
1 58 -131 0 
1 87 146 0 
1 -121 -75 0 
1 128 142 0 
1 60 -111 0 
1 -95 -160 0 
1 147 -83 0 
1 -93 138 0 
1 -157 -122 0 
1 51 -76 0 
1 -124 67 0 
1 -106 150 0 
1 -54 -166 0 
1 2 -148 0 
1 -140 -40 0 
1 53 -91 0 
